6 -1 3 -1 2 4 2 10 4 -1 
1 -1 5 9 6 9 4 5 8 -1 
9 5 4 8 8 7 8 8 -1 -1 
7 2 0 7 7 -1 9 8 9 -1 
8 3 9 6 6 -1 8 3 3 -1 
7 5 -1 8 -1 9 -1 7 4 -1 
7 7 3 2 9 6 9 6 0 -1 
7 -1 1 5 10 8 2 -1 7 -1 
6 5 5 6 0 0 7 -1 3 -1 
9 5 6 5 3 4 6 10 6 -1 
10 -1 9 -1 6 8 10 -1 3 -1 
7 9 10 8 3 7 1 10 8 -1 
7 5 4 6 4 3 -1 2 9 -1 
0 0 6 8 -1 4 5 0 5 -1 
4 2 10 1 5 6 7 1 2 -1 
9 9 7 2 1 -1 0 8 3 -1 
1 -1 6 8 4 3 7 -1 1 -1 
2 0 7 10 8 4 2 7 -1 -1 
5 8 6 6 6 10 10 10 1 -1 
0 5 10 7 0 -1 9 0 10 -1 
9 9 10 -1 2 4 4 0 -1 -1 
2 10 4 7 3 5 10 6 2 -1 
1 1 9 8 2 10 1 3 1 -1 
9 9 10 -1 8 7 2 10 2 -1 
2 0 0 9 4 2 -1 4 4 -1 
0 -1 -1 4 -1 8 0 7 2 -1 
2 -1 0 8 8 9 2 5 1 -1 
3 0 4 5 10 3 7 2 3 -1 
1 8 3 2 3 10 1 3 9 -1 
3 9 0 6 1 6 1 8 8 -1 
